 &control
    calculation = 'scf'
    restart_mode='from_scratch',
    prefix='si-fcc',
    pseudo_dir = './',
    outdir='./si-fcc/'
 /

 &system
! Specify crystal structure
    space_group = 227,
    ibrav=  2, 
    celldm(1) = 10.26,
    nat = 1,
    ntyp= 1
! Plane wave cutoff energy
    ecutwfc = 60
! Metals: state occupancies and smearing
    occupations = 'smearing',
    smearing = 'gaussian',
    degauss = 0.01
 /

 &electrons
! SCF threshold for delta(E)
    conv_thr =  1.0d-7
! SCF cycle density mixing
    mixing_mode = 'plain'
    mixing_beta = 0.7
 /

ATOMIC_SPECIES
 Si 28.085 Si.pbe-n-van.UPF 

ATOMIC_POSITIONS crystal_sg
Si 0.00 0.00 0.00

K_POINTS automatic
8 8 8  0 0 0

