 &control
    calculation = 'scf'
    restart_mode='from_scratch',
    prefix='silicon',
    pseudo_dir = './',
    outdir='./si-scf-van/'
 /
 &system
    ibrav=  5, 
    celldm(1)= 10.21,
    celldm(4)= 0.00,
    nat=  8, 
    ntyp= 1,
    ecutwfc = 30
 /
 &electrons
    mixing_mode = 'plain'
    mixing_beta = 0.7
    conv_thr =  1.0d-7
 /
ATOMIC_SPECIES
 Si  28.086  Si.pbe-n-van.UPF
ATOMIC_POSITIONS
 Si 0.00 0.00 0.00
 Si (2^(1/2))/4 ((6)^(1/2))/12 (1/3)^(1/2)
 Si 0.00 -(1/6)^(1/2) (1/3)^(1/2)
 Si -(2^(1/2))/4 ((6)^(1/2))/12 (1/3)^(1/2)
 Si 0.00 0.00 (3^(1/2))/4
 Si (2^(1/2))/4 (6^(1/2))/12 7*(3^(1/2))/12
 Si -(2^(1/2))/4 (6^(1/2))/12 7*(3^(1/2))/12
 Si 0.00 -1/(6^(1/2)) 7*(3^(1/2))/12
K_POINTS automatic
8 8 8  0 0 0

