 &control
    calculation = 'scf'
    restart_mode='from_scratch',
    prefix='silicon',
    pseudo_dir = './',
    outdir='./si-scf-van/'
 /
 &system
    ibrav=  1, 
    celldm(1)= 10.21,
    nat=  8, 
    ntyp= 1,
    ecutwfc = 30
 /
 &electrons
    mixing_mode = 'plain'
    mixing_beta = 0.7
    conv_thr =  1.0d-7
 /
ATOMIC_SPECIES
 Si  28.086  Si.pbe-n-van.UPF
ATOMIC_POSITIONS
 Si 0.00 0.00 0.00
 Si 0.50 0.50 0.00
 Si 0.00 0.50 0.50
 Si 0.50 0.00 0.50
 Si 0.25 0.25 0.25
 Si 0.75 0.75 0.25
 Si 0.25 0.75 0.75
 Si 0.75 0.25 0.75
K_POINTS automatic
8 8 8  0 0 0

