phonons of Si
 &inputph
  prefix='silicon',
  outdir='./si-phon/',
  fildyn='si.dyn',

! Atomic masses of atoms:
  amass(1)=28.086

! Convergence settings:
  tr2_ph=1.0d-12,

! Set up regular q-grid for DFPT:
  ldisp=.true.,
  nq1=4, nq2=4, nq3=4
 /
